27
10000 10000
2720 1522
6630 8885
3053 5123
4665 1139
6187 8295
6793 9365
7578 274
1155 4556
5548 7913
9253 8403
7139 1044
3253 1296
4459 1727
9201 7303
8025 7989
5564 4253
2753 6926
4933 9790
6893 1918
4637 1482
3575 2416
9931 4924
7413 4905
9732 5423
3956 6990
5034 9067
8329 6974
